Route #1: 103 5 76 49 73 65 40 88 86 43 99 46 77
Route #2: 37 17 137 44 107 45 91 33 15 108 90 38 11 78
Route #3: 123 71 122 10 54 106 39 117 89 125 72 124 52
Route #4: 57 6 98 24 96 132 149 4 143 109 147 145 146
Route #5: 61 114 7 69 23 97 58 14 95 25 133 110
Route #6: 68 18 134 67 13 111 135 55 150 87 142
Route #7: 66 41 136 140 31 82 113 26 60 8 112
Route #8: 102 27 138 48 81 1 120 80 22 83 2 100 51
Route #9: 131 20 35 85 115 36 121 59 3 116 28 70
Route #10: 101 129 53 127 16 118 21 79 34 130 50 9 62
Route #11: 148 92 42 93 141 64 19 94 75 105 30 104 74 126 29 128 84 119 32
Route #12: 139 47 12 56 144 63
Cost 1400.46
